# # # # #
# 控制如何生成初始波函数
# 0：随机生成波函数
# 1 : 从WAVECAR中读取波函数，当读取失败时，会随机生成
ISTART=0
# # # # #
# 控制如何生成初始电荷密度
# 0：读取WAVECAR生成电荷密度，当读取失败时，通过原子电荷密度叠加生成初始电荷密度
# 1：从CHGCAR中的设定读取电荷密度
# 2：通过原子电荷密度的叠加方法，生成初始的猜测电荷密度
# 11：从CHGCAR读取电荷密度，且在自洽循环中保持不变，适用于非自洽循环计算，如电子态密度的计算
ICHAGE=1

# # # # #
# Hubbard U模型，描述电子强关联能
# 参数组为：LDAU、LDAUL、LDAUU、LDAUJ
# LDAU=.T. 使用LDA+U功能
# LDAUL=-1/1/2/3 分别对应不加U和p、d、f轨道加U
# LDAUU、LDAUJ 分别设置U和J值
# Tips：LDA、GGA等交换相关泛函通常会低估带隙，通过设置此参数可以得到更接近于真实值的带隙计算结果。

LDAU=.T.
LDAUL=3
LDAUU=?
